(declare-fun temp1682_1 () (_ BitVec 64))
(declare-fun temp1682_2 () (_ BitVec 64))
(declare-fun temp1682_3 () (_ BitVec 64))
(declare-fun ARGNAME_w_hh_NAMEEND_DIMSIZE
             ()
             (Array (_ BitVec 64) (_ BitVec 64)))
(declare-fun temp1682_4 () (_ BitVec 64))
(declare-fun temp1682_5 () (_ BitVec 64))
(declare-fun temp1682_6 () (_ BitVec 64))
(declare-fun temp1682_7 () (_ BitVec 64))
(declare-fun temp1682_8 () (_ BitVec 64))
(declare-fun temp1682_9 () (_ BitVec 64))
(declare-fun temp1682_10 () (_ BitVec 64))
(declare-fun temp1682_11 () (_ BitVec 64))
(declare-fun temp1682_12 () (_ BitVec 64))
(declare-fun temp1682_13 () (_ BitVec 64))
(declare-fun temp1682_14 () (_ BitVec 64))
(declare-fun temp1682_15 () (_ BitVec 64))
(declare-fun temp1682_16 () (_ BitVec 64))
(declare-fun temp1682_17 () (_ BitVec 64))
(declare-fun temp1682_18 () (_ BitVec 64))
(declare-fun temp1682_19 () (_ BitVec 64))
(declare-fun temp1682_20 () (_ BitVec 64))
(declare-fun temp1682_21 () (_ BitVec 64))
(declare-fun temp1682_22 () (_ BitVec 64))
(declare-fun temp1682_23 () (_ BitVec 64))
(declare-fun temp1682_24 () (_ BitVec 64))
(declare-fun ARGNAME_input_NAMEEND_DIMSIZE
             ()
             (Array (_ BitVec 64) (_ BitVec 64)))
(declare-fun temp1682_25 () (_ BitVec 64))
(declare-fun temp1682_26 () (_ BitVec 64))
(declare-fun temp1682_27 () (_ BitVec 64))
(declare-fun temp1682_28 () (_ BitVec 64))
(declare-fun temp1682_29 () (_ BitVec 64))
(declare-fun temp1682_30 () (_ BitVec 64))
(declare-fun temp1682_31 () (_ BitVec 64))
(declare-fun temp1682_32 () (_ BitVec 64))
(declare-fun temp1682_33 () (_ BitVec 64))
(declare-fun temp1682_34 () (_ BitVec 64))
(declare-fun temp1682_35 () (_ BitVec 64))
(declare-fun temp1682_36 () (_ BitVec 64))
(declare-fun temp1682_37 () (_ BitVec 64))
(declare-fun temp1682_38 () (_ BitVec 64))
(declare-fun temp1682_39 () (_ BitVec 64))
(declare-fun temp1682_40 () (_ BitVec 64))
(declare-fun temp1682_41 () (_ BitVec 64))
(declare-fun temp1682_42 () (_ BitVec 64))
(declare-fun temp1682_43 () (_ BitVec 64))
(declare-fun temp1682_44 () (_ BitVec 64))
(declare-fun var404256 () (_ BitVec 64))
(declare-fun k!0 () (_ BitVec 64))
(declare-fun k!1 () (_ BitVec 64))
(declare-fun k!2 () Bool)
(declare-fun ARGNAME_w_hh_NAMEEND_DIM () (_ BitVec 64))
(declare-fun ARGNAME_input_NAMEEND_DIM () (_ BitVec 64))
(declare-fun temp1682_45 () (_ BitVec 64))
(declare-fun temp1682_46 () (_ BitVec 64))
(declare-fun ARGNAME_b_ih_NAMEEND_DIMSIZE
             ()
             (Array (_ BitVec 64) (_ BitVec 64)))
(declare-fun temp1682_47 () (_ BitVec 64))
(declare-fun temp1682_48 () (_ BitVec 64))
(declare-fun temp1682_49 () (_ BitVec 64))
(declare-fun temp1682_50 () (_ BitVec 64))
(declare-fun temp1682_51 () (_ BitVec 64))
(declare-fun temp1682_52 () (_ BitVec 64))
(declare-fun temp1682_53 () (_ BitVec 64))
(declare-fun temp1682_54 () (_ BitVec 64))
(declare-fun temp1682_55 () (_ BitVec 64))
(declare-fun temp1682_56 () (_ BitVec 64))
(declare-fun temp1682_57 () (_ BitVec 64))
(declare-fun temp1682_58 () (_ BitVec 64))
(declare-fun temp1682_59 () (_ BitVec 64))
(declare-fun temp1682_60 () (_ BitVec 64))
(declare-fun temp1682_61 () (_ BitVec 64))
(declare-fun temp1682_62 () (_ BitVec 64))
(declare-fun temp1682_63 () (_ BitVec 64))
(declare-fun temp1682_64 () (_ BitVec 64))
(declare-fun temp1682_65 () (_ BitVec 64))
(declare-fun ARGNAME_b_ih_NAMEEND_DIM () (_ BitVec 64))
(declare-fun temp1682_66 () (_ BitVec 64))
(declare-fun var65706 () (_ BitVec 64))
(declare-fun temp1682_67 () (_ BitVec 64))
(declare-fun temp1682_68 () (_ BitVec 64))
(declare-fun temp1682_69 () (_ BitVec 64))
(declare-fun temp1682_70 () (_ BitVec 64))
(declare-fun temp1682_71 () (_ BitVec 64))
(declare-fun temp1682_72 () (_ BitVec 64))
(declare-fun var68976 () (_ BitVec 64))
(declare-fun temp1682_73 () (_ BitVec 64))
(declare-fun temp1682_74 () (_ BitVec 64))
(declare-fun temp1682_75 () (_ BitVec 64))
(declare-fun temp1682_76 () (_ BitVec 64))
(declare-fun temp1682_77 () (_ BitVec 64))
(declare-fun temp1682_78 () (_ BitVec 64))
(declare-fun temp1682_79 () (_ BitVec 64))
(declare-fun temp1682_80 () (_ BitVec 64))
(declare-fun var2041840 () (_ BitVec 64))
(declare-fun temp1682_81 () (_ BitVec 64))
(declare-fun temp1682_82 () (_ BitVec 64))
(declare-fun var2756425 () (_ BitVec 64))
(declare-fun temp1682_83 () (_ BitVec 64))
(declare-fun var3084353 () (_ BitVec 64))
(declare-fun temp1682_84 () (_ BitVec 64))
(declare-fun var3084354 () (_ BitVec 64))
(declare-fun temp1682_85 () (_ BitVec 64))
(declare-fun var3149899 () (_ BitVec 64))
(declare-fun temp1682_86 () (_ BitVec 64))
(declare-fun var3280971 () (_ BitVec 64))
(declare-fun temp1682_87 () (_ BitVec 64))
(declare-fun var3412043 () (_ BitVec 64))
(declare-fun temp1682_88 () (_ BitVec 64))
(declare-fun var3543115 () (_ BitVec 64))
(declare-fun temp1682_89 () (_ BitVec 64))
(declare-fun var3673929 () (_ BitVec 64))
(assert (= temp1682_1 #x0000000000000000))
(assert (= temp1682_2 temp1682_1))
(assert (= temp1682_3 (select ARGNAME_w_hh_NAMEEND_DIMSIZE temp1682_2)))
(assert (= temp1682_4 #x0000000000000001))
(assert (= temp1682_5 temp1682_4))
(assert (= temp1682_6 (select ARGNAME_w_hh_NAMEEND_DIMSIZE temp1682_5)))
(assert (= temp1682_7 #x0000000000000002))
(assert (= temp1682_8 temp1682_7))
(assert (= temp1682_9 (select ARGNAME_w_hh_NAMEEND_DIMSIZE temp1682_8)))
(assert (= temp1682_10 #x0000000000000003))
(assert (= temp1682_11 temp1682_10))
(assert (= temp1682_12 (select ARGNAME_w_hh_NAMEEND_DIMSIZE temp1682_11)))
(assert (= temp1682_13 #x0000000000000004))
(assert (= temp1682_14 temp1682_13))
(assert (= temp1682_15 (select ARGNAME_w_hh_NAMEEND_DIMSIZE temp1682_14)))
(assert (= temp1682_16 #x0000000000000005))
(assert (= temp1682_17 temp1682_16))
(assert (= temp1682_18 (select ARGNAME_w_hh_NAMEEND_DIMSIZE temp1682_17)))
(assert (= temp1682_19 #x0000000000000001))
(assert (= temp1682_20 temp1682_19))
(assert (= temp1682_21 (select ARGNAME_w_hh_NAMEEND_DIMSIZE temp1682_20)))
(assert (bvsgt ARGNAME_w_hh_NAMEEND_DIM temp1682_19))
(assert (bvsge temp1682_19 (bvneg ARGNAME_w_hh_NAMEEND_DIM)))
(assert (= temp1682_22 #x0000000000000000))
(assert (= temp1682_23 temp1682_22))
(assert (= temp1682_24 (select ARGNAME_input_NAMEEND_DIMSIZE temp1682_23)))
(assert (= temp1682_25 #x0000000000000001))
(assert (= temp1682_26 temp1682_25))
(assert (= temp1682_27 (select ARGNAME_input_NAMEEND_DIMSIZE temp1682_26)))
(assert (= temp1682_28 #x0000000000000002))
(assert (= temp1682_29 temp1682_28))
(assert (= temp1682_30 (select ARGNAME_input_NAMEEND_DIMSIZE temp1682_29)))
(assert (= temp1682_31 #x0000000000000003))
(assert (= temp1682_32 temp1682_31))
(assert (= temp1682_33 (select ARGNAME_input_NAMEEND_DIMSIZE temp1682_32)))
(assert (= temp1682_34 #x0000000000000004))
(assert (= temp1682_35 temp1682_34))
(assert (= temp1682_36 (select ARGNAME_input_NAMEEND_DIMSIZE temp1682_35)))
(assert (= temp1682_37 #x0000000000000005))
(assert (= temp1682_38 temp1682_37))
(assert (= temp1682_39 (select ARGNAME_input_NAMEEND_DIMSIZE temp1682_38)))
(assert (= temp1682_40 #x0000000000000001))
(assert (= temp1682_41 temp1682_40))
(assert (= temp1682_42 (select ARGNAME_input_NAMEEND_DIMSIZE temp1682_41)))
(assert (bvsgt ARGNAME_input_NAMEEND_DIM temp1682_40))
(assert (bvsge temp1682_40 (bvneg ARGNAME_input_NAMEEND_DIM)))
(assert (= temp1682_43 temp1682_21))
(assert (= var404256
   (ite (= temp1682_42 temp1682_43) #x0000000000000001 #x0000000000000000)))
(assert (= temp1682_44 #x0000000000000001))
(assert (= var404256 temp1682_44))
(assert (= temp1682_45 #x0000000000000000))
(assert (= temp1682_46 temp1682_45))
(assert (= temp1682_47 (select ARGNAME_b_ih_NAMEEND_DIMSIZE temp1682_46)))
(assert (= temp1682_48 #x0000000000000001))
(assert (= temp1682_49 temp1682_48))
(assert (= temp1682_50 (select ARGNAME_b_ih_NAMEEND_DIMSIZE temp1682_49)))
(assert (= temp1682_51 #x0000000000000002))
(assert (= temp1682_52 temp1682_51))
(assert (= temp1682_53 (select ARGNAME_b_ih_NAMEEND_DIMSIZE temp1682_52)))
(assert (= temp1682_54 #x0000000000000003))
(assert (= temp1682_55 temp1682_54))
(assert (= temp1682_56 (select ARGNAME_b_ih_NAMEEND_DIMSIZE temp1682_55)))
(assert (= temp1682_57 #x0000000000000004))
(assert (= temp1682_58 temp1682_57))
(assert (= temp1682_59 (select ARGNAME_b_ih_NAMEEND_DIMSIZE temp1682_58)))
(assert (= temp1682_60 #x0000000000000005))
(assert (= temp1682_61 temp1682_60))
(assert (= temp1682_62 (select ARGNAME_b_ih_NAMEEND_DIMSIZE temp1682_61)))
(assert (= temp1682_63 #x0000000000000001))
(assert (= temp1682_64 temp1682_63))
(assert (= temp1682_65 (select ARGNAME_b_ih_NAMEEND_DIMSIZE temp1682_64)))
(assert (bvsgt ARGNAME_b_ih_NAMEEND_DIM temp1682_63))
(assert (bvsge temp1682_63 (bvneg ARGNAME_b_ih_NAMEEND_DIM)))
(assert (= temp1682_66 #x0000000000000000))
(assert (= var65706 temp1682_66))
(assert (= temp1682_67 temp1682_65))
(assert (= temp1682_68 #x0000000000000000))
(assert (= temp1682_69 temp1682_68))
(assert (= temp1682_70 (select ARGNAME_input_NAMEEND_DIMSIZE temp1682_69)))
(assert (bvsgt ARGNAME_input_NAMEEND_DIM temp1682_68))
(assert (bvsge temp1682_68 (bvneg ARGNAME_input_NAMEEND_DIM)))
(assert (= temp1682_71 temp1682_67))
(assert (= temp1682_72 #x0000000000000001))
(assert (= var68976 temp1682_72))
(assert (= temp1682_73 temp1682_65))
(assert (= temp1682_74 #x0000000000000000))
(assert (= temp1682_75 temp1682_74))
(assert (= temp1682_76 (select ARGNAME_input_NAMEEND_DIMSIZE temp1682_75)))
(assert (bvsgt ARGNAME_input_NAMEEND_DIM temp1682_74))
(assert (bvsge temp1682_74 (bvneg ARGNAME_input_NAMEEND_DIM)))
(assert (= temp1682_77 temp1682_73))
(assert (= temp1682_78 #x0000000000000000))
(assert (= var65706 temp1682_78))
(assert (= temp1682_79 #x0000000000000001))
(assert (= var68976 temp1682_79))
(assert (= temp1682_80 #x0000000000000000))
(assert (= var2041840 temp1682_80))
(assert (= temp1682_81 #x0000000000000000))
(assert (= var2041840 temp1682_81))
(assert (= temp1682_82 #x0000000000000001))
(assert (= var2756425 temp1682_82))
(assert (= temp1682_83 #x0000000000000004))
(assert (= var3084353 temp1682_83))
(assert (= temp1682_84 #x0000000000000001))
(assert (= var3084354 temp1682_84))
(assert (= temp1682_85 #x0000000000000000))
(assert (= var3149899 temp1682_85))
(assert (= temp1682_86 #x0000000000000001))
(assert (= var3280971 temp1682_86))
(assert (= temp1682_87 #x0000000000000002))
(assert (= var3412043 temp1682_87))
(assert (= temp1682_88 #x0000000000000003))
(assert (= var3543115 temp1682_88))
(assert (= temp1682_89 #x0000000000000001))
(assert (= var3673929 temp1682_89))
(model-add temp1682_1 () (_ BitVec 64) #x0000000000000000)
(model-add temp1682_2 () (_ BitVec 64) #x0000000000000000)
(model-add temp1682_3
           ()
           (_ BitVec 64)
           (select ARGNAME_w_hh_NAMEEND_DIMSIZE #x0000000000000000))
(model-add temp1682_4 () (_ BitVec 64) #x0000000000000001)
(model-add temp1682_5 () (_ BitVec 64) #x0000000000000001)
(model-add temp1682_6
           ()
           (_ BitVec 64)
           (select ARGNAME_w_hh_NAMEEND_DIMSIZE #x0000000000000001))
(model-add temp1682_7 () (_ BitVec 64) #x0000000000000002)
(model-add temp1682_8 () (_ BitVec 64) #x0000000000000002)
(model-add temp1682_9
           ()
           (_ BitVec 64)
           (select ARGNAME_w_hh_NAMEEND_DIMSIZE #x0000000000000002))
(model-add temp1682_10 () (_ BitVec 64) #x0000000000000003)
(model-add temp1682_11 () (_ BitVec 64) #x0000000000000003)
(model-add temp1682_12
           ()
           (_ BitVec 64)
           (select ARGNAME_w_hh_NAMEEND_DIMSIZE #x0000000000000003))
(model-add temp1682_13 () (_ BitVec 64) #x0000000000000004)
(model-add temp1682_14 () (_ BitVec 64) #x0000000000000004)
(model-add temp1682_15
           ()
           (_ BitVec 64)
           (select ARGNAME_w_hh_NAMEEND_DIMSIZE #x0000000000000004))
(model-add temp1682_16 () (_ BitVec 64) #x0000000000000005)
(model-add temp1682_17 () (_ BitVec 64) #x0000000000000005)
(model-add temp1682_18
           ()
           (_ BitVec 64)
           (select ARGNAME_w_hh_NAMEEND_DIMSIZE #x0000000000000005))
(model-add temp1682_19 () (_ BitVec 64) #x0000000000000001)
(model-add temp1682_20 () (_ BitVec 64) #x0000000000000001)
(model-add temp1682_21
           ()
           (_ BitVec 64)
           (select ARGNAME_w_hh_NAMEEND_DIMSIZE #x0000000000000001))
(model-add temp1682_22 () (_ BitVec 64) #x0000000000000000)
(model-add temp1682_23 () (_ BitVec 64) #x0000000000000000)
(model-add temp1682_24
           ()
           (_ BitVec 64)
           (select ARGNAME_input_NAMEEND_DIMSIZE #x0000000000000000))
(model-add temp1682_25 () (_ BitVec 64) #x0000000000000001)
(model-add temp1682_26 () (_ BitVec 64) #x0000000000000001)
(model-add temp1682_27
           ()
           (_ BitVec 64)
           (select ARGNAME_input_NAMEEND_DIMSIZE #x0000000000000001))
(model-add temp1682_28 () (_ BitVec 64) #x0000000000000002)
(model-add temp1682_29 () (_ BitVec 64) #x0000000000000002)
(model-add temp1682_30
           ()
           (_ BitVec 64)
           (select ARGNAME_input_NAMEEND_DIMSIZE #x0000000000000002))
(model-add temp1682_31 () (_ BitVec 64) #x0000000000000003)
(model-add temp1682_32 () (_ BitVec 64) #x0000000000000003)
(model-add temp1682_33
           ()
           (_ BitVec 64)
           (select ARGNAME_input_NAMEEND_DIMSIZE #x0000000000000003))
(model-add temp1682_34 () (_ BitVec 64) #x0000000000000004)
(model-add temp1682_35 () (_ BitVec 64) #x0000000000000004)
(model-add temp1682_36
           ()
           (_ BitVec 64)
           (select ARGNAME_input_NAMEEND_DIMSIZE #x0000000000000004))
(model-add temp1682_37 () (_ BitVec 64) #x0000000000000005)
(model-add temp1682_38 () (_ BitVec 64) #x0000000000000005)
(model-add temp1682_39
           ()
           (_ BitVec 64)
           (select ARGNAME_input_NAMEEND_DIMSIZE #x0000000000000005))
(model-add temp1682_40 () (_ BitVec 64) #x0000000000000001)
(model-add temp1682_41 () (_ BitVec 64) #x0000000000000001)
(model-add temp1682_42
           ()
           (_ BitVec 64)
           (select ARGNAME_input_NAMEEND_DIMSIZE #x0000000000000001))
(model-add temp1682_43
           ()
           (_ BitVec 64)
           (select ARGNAME_w_hh_NAMEEND_DIMSIZE #x0000000000000001))
(model-add temp1682_44 () (_ BitVec 64) #x0000000000000001)
(model-add var404256 () (_ BitVec 64) #x0000000000000001)
(model-del k!0)
(model-add ARGNAME_input_NAMEEND_DIMSIZE
           ()
           (Array (_ BitVec 64) (_ BitVec 64))
           ((as const (Array (_ BitVec 64) (_ BitVec 64))) k!0))
(model-del k!1)
(model-add ARGNAME_w_hh_NAMEEND_DIMSIZE
           ()
           (Array (_ BitVec 64) (_ BitVec 64))
           ((as const (Array (_ BitVec 64) (_ BitVec 64))) k!1))
(model-del k!2)
(model-add k!0 () (_ BitVec 64) (ite k!2 k!1 (bvnot k!1)))





